min: c;

c = 4.48445318320363 * u3_t10_h0 + 3.26363051801052 * u3_t10_h1 + 3.751788944913 * u3_t4_h2 + 3.751788944913 * u3_t10_h2 + 3.15698825916387 * u3_t4_h3 + 3.15698825916387 * u3_t10_h3 + 2.8830762851058 * u3_t4_h4 + 2.8830762851058 * u3_t10_h4 + 3.97768552631738 * u3_t4_h5 + 3.97768552631738 * u3_t10_h5 + 3.71885657003821 * u3_t4_h6 + 3.71885657003821 * u3_t10_h6 + 4.16714535837767 * u3_t4_h7 + 4.16714535837767 * u3_t9_h7 + 4.16714535837767 * u3_t10_h7 + 5.09686509690236 * u3_t4_h8 + 5.09686509690236 * u3_t9_h8 + 4.65936485143157 * u3_t4_h9 + 4.65936485143157 * u3_t9_h9 + 5.55303568355508 * u3_t4_h10 + 5.55303568355508 * u3_t6_h10 + 5.55303568355508 * u3_t9_h10 + 4.22371664402156 * u3_t3_h11 + 4.22371664402156 * u3_t4_h11 + 4.22371664402156 * u3_t6_h11 + 4.22371664402156 * u3_t9_h11 + 6.67899675989898 * u3_t3_h12 + 6.67899675989898 * u3_t4_h12 + 6.67899675989898 * u3_t6_h12 + 6.67899675989898 * u3_t9_h12 + 4.86309406837676 * u3_t3_h13 + 4.86309406837676 * u3_t4_h13 + 4.86309406837676 * u3_t5_h13 + 4.86309406837676 * u3_t6_h13 + 4.86309406837676 * u3_t9_h13 + 5.55347252487899 * u3_t3_h14 + 5.55347252487899 * u3_t4_h14 + 5.55347252487899 * u3_t5_h14 + 5.55347252487899 * u3_t6_h14 + 5.55347252487899 * u3_t9_h14 + 5.86908378361079 * u3_t2_h15 + 5.86908378361079 * u3_t3_h15 + 5.86908378361079 * u3_t4_h15 + 5.86908378361079 * u3_t5_h15 + 5.86908378361079 * u3_t6_h15 + 5.86908378361079 * u3_t9_h15 + 6.36856869336549 * u3_t2_h16 + 6.36856869336549 * u3_t4_h16 + 6.36856869336549 * u3_t5_h16 + 6.36856869336549 * u3_t6_h16 + 6.36856869336549 * u3_t9_h16 + 6.05218096648113 * u3_t2_h17 + 6.05218096648113 * u3_t4_h17 + 6.05218096648113 * u3_t6_h17 + 6.05218096648113 * u3_t9_h17 + 6.4531438173419 * u3_t2_h18 + 6.4531438173419 * u3_t6_h18 + 6.4531438173419 * u3_t9_h18 + 5.16982358744511 * u3_t2_h19 + 5.16982358744511 * u3_t9_h19 + 5.45246674180863 * u3_t1_h20 + 5.45246674180863 * u3_t2_h20 + 5.45246674180863 * u3_t8_h20 + 5.45246674180863 * u3_t9_h20 + 4.83403101941733 * u3_t1_h21 + 4.83403101941733 * u3_t2_h21 + 4.83403101941733 * u3_t7_h21 + 4.83403101941733 * u3_t8_h21 + 4.83403101941733 * u3_t9_h21 + 5.46830339549282 * u3_t1_h22 + 5.46830339549282 * u3_t7_h22 + 5.46830339549282 * u3_t8_h22 + 5.00490505123966 * u3_t1_h23 + 5.00490505123966 * u3_t7_h23 + 5.00490505123966 * u3_t8_h23;
0 <= u3_t1_h20 <= 1;
0 <= u3_t1_h21 <= 1;
0 <= u3_t1_h22 <= 1;
0 <= u3_t1_h23 <= 1;
u3_t1_h20 + u3_t1_h21 + u3_t1_h22 + u3_t1_h23 = 2;
0 <= u3_t2_h15 <= 1;
0 <= u3_t2_h16 <= 1;
0 <= u3_t2_h17 <= 1;
0 <= u3_t2_h18 <= 1;
0 <= u3_t2_h19 <= 1;
0 <= u3_t2_h20 <= 1;
0 <= u3_t2_h21 <= 1;
u3_t2_h15 + u3_t2_h16 + u3_t2_h17 + u3_t2_h18 + u3_t2_h19 + u3_t2_h20 + u3_t2_h21 = 3;
0 <= u3_t3_h11 <= 1;
0 <= u3_t3_h12 <= 1;
0 <= u3_t3_h13 <= 1;
0 <= u3_t3_h14 <= 1;
0 <= u3_t3_h15 <= 1;
u3_t3_h11 + u3_t3_h12 + u3_t3_h13 + u3_t3_h14 + u3_t3_h15 = 2;
0 <= u3_t4_h2 <= 1;
0 <= u3_t4_h3 <= 1;
0 <= u3_t4_h4 <= 1;
0 <= u3_t4_h5 <= 1;
0 <= u3_t4_h6 <= 1;
0 <= u3_t4_h7 <= 1;
0 <= u3_t4_h8 <= 1;
0 <= u3_t4_h9 <= 1;
0 <= u3_t4_h10 <= 1;
0 <= u3_t4_h11 <= 1;
0 <= u3_t4_h12 <= 1;
0 <= u3_t4_h13 <= 1;
0 <= u3_t4_h14 <= 1;
0 <= u3_t4_h15 <= 1;
0 <= u3_t4_h16 <= 1;
0 <= u3_t4_h17 <= 1;
u3_t4_h2 + u3_t4_h3 + u3_t4_h4 + u3_t4_h5 + u3_t4_h6 + u3_t4_h7 + u3_t4_h8 + u3_t4_h9 + u3_t4_h10 + u3_t4_h11 + u3_t4_h12 + u3_t4_h13 + u3_t4_h14 + u3_t4_h15 + u3_t4_h16 + u3_t4_h17 = 3;
0 <= u3_t5_h13 <= 1;
0 <= u3_t5_h14 <= 1;
0 <= u3_t5_h15 <= 1;
0 <= u3_t5_h16 <= 1;
u3_t5_h13 + u3_t5_h14 + u3_t5_h15 + u3_t5_h16 = 2;
0 <= u3_t6_h10 <= 1;
0 <= u3_t6_h11 <= 1;
0 <= u3_t6_h12 <= 1;
0 <= u3_t6_h13 <= 1;
0 <= u3_t6_h14 <= 1;
0 <= u3_t6_h15 <= 1;
0 <= u3_t6_h16 <= 1;
0 <= u3_t6_h17 <= 1;
0 <= u3_t6_h18 <= 1;
u3_t6_h10 + u3_t6_h11 + u3_t6_h12 + u3_t6_h13 + u3_t6_h14 + u3_t6_h15 + u3_t6_h16 + u3_t6_h17 + u3_t6_h18 = 2;
0 <= u3_t7_h21 <= 1;
0 <= u3_t7_h22 <= 1;
0 <= u3_t7_h23 <= 1;
u3_t7_h21 + u3_t7_h22 + u3_t7_h23 = 2;
0 <= u3_t8_h20 <= 1;
0 <= u3_t8_h21 <= 1;
0 <= u3_t8_h22 <= 1;
0 <= u3_t8_h23 <= 1;
u3_t8_h20 + u3_t8_h21 + u3_t8_h22 + u3_t8_h23 = 1;
0 <= u3_t9_h7 <= 1;
0 <= u3_t9_h8 <= 1;
0 <= u3_t9_h9 <= 1;
0 <= u3_t9_h10 <= 1;
0 <= u3_t9_h11 <= 1;
0 <= u3_t9_h12 <= 1;
0 <= u3_t9_h13 <= 1;
0 <= u3_t9_h14 <= 1;
0 <= u3_t9_h15 <= 1;
0 <= u3_t9_h16 <= 1;
0 <= u3_t9_h17 <= 1;
0 <= u3_t9_h18 <= 1;
0 <= u3_t9_h19 <= 1;
0 <= u3_t9_h20 <= 1;
0 <= u3_t9_h21 <= 1;
u3_t9_h7 + u3_t9_h8 + u3_t9_h9 + u3_t9_h10 + u3_t9_h11 + u3_t9_h12 + u3_t9_h13 + u3_t9_h14 + u3_t9_h15 + u3_t9_h16 + u3_t9_h17 + u3_t9_h18 + u3_t9_h19 + u3_t9_h20 + u3_t9_h21 = 2;
0 <= u3_t10_h0 <= 1;
0 <= u3_t10_h1 <= 1;
0 <= u3_t10_h2 <= 1;
0 <= u3_t10_h3 <= 1;
0 <= u3_t10_h4 <= 1;
0 <= u3_t10_h5 <= 1;
0 <= u3_t10_h6 <= 1;
0 <= u3_t10_h7 <= 1;
u3_t10_h0 + u3_t10_h1 + u3_t10_h2 + u3_t10_h3 + u3_t10_h4 + u3_t10_h5 + u3_t10_h6 + u3_t10_h7 = 3;
